67,53
72,87
11,11
84,47
50,39
14,27
87,91
37,84
53,32
57,39
80,59
89,48
62,72
40,94
43,28
55,53
99,10
10,12
81,56
14,62
90,16
27,68
58,49
11,32
49,14
94,51
28,51
44,71
73,23
41,13
49,10
42,67
12,23
12,61
59,79
84,30
87,82
36,64
98,36
48,67
13,39
22,42
50,52
31,19
81,92
39,13
30,59
25,47
28,73
19,17
95,12
36,24
75,38
67,14
37,98
95,83
77,26
28,43
26,25
14,52
60,95
31,11
21,74
20,68
42,46
41,95
82,61
95,13
54,83
96,74
15,87
49,53
73,87
85,86
51,35

1571
297
694
366
180
323
140
132
64
29
